c A SAT instance generated from a 3-CNF formula that had 27 clauses and 9 variables
p cnf 9 27
-3 1 8 0
3 7 8 0
1 4 -5 0
3 6 -5 0
-7 6 -9 0
-1 4 -8 0
1 6 -2 0
-9 8 -5 0
-5 1 -4 0
-2 3 4 0
-5 4 7 0
-1 -3 -6 0
-6 5 1 0
-7 -5 -4 0
6 -7 3 0
5 9 3 0
-9 1 2 0
-1 -4 -8 0
9 2 -3 0
-4 3 -2 0
5 2 -4 0
-2 8 -5 0
2 -9 -4 0
-1 -6 -2 0
-5 -2 -4 0
7 5 -3 0
9 2 1 0
